language ESSENCE' 1.0
$ Minion SolverNodes: 1231
$ Minion SolverTotalTime: 0.155098
$ Minion SolverTimeOut: 0
$ Savile Row TotalTime: 1.275
letting cells be [[6, 6], 
[6, 5], 
[6, 4], 
[6, 3], 
[6, 2], 
[6, 1], 
[5, 1], 
[4, 1], 
[3, 1], 
[3, 2], 
[4, 2], 
[5, 2], 
[5, 3], 
[5, 4], 
[5, 5], 
[5, 6], 
[4, 6], 
[3, 6], 
[2, 6], 
[1, 6], 
[1, 5], 
[2, 5], 
[3, 5], 
[3, 4], 
[2, 4], 
[2, 3], 
[1, 3], 
[1, 2]]
